
        $ From http://www.csplib.org/Problems/prob009/data/helmut.pdf
        $ Problem number 126
        $ Sequence length : 25
        language ESSENCE' 1.0
        letting sizemaster be 398
        letting sizes be sequence(2,6,7,11,15,17,23,28,29,39,44,46,53,56,58,65,68,99,100,119,120,134,144,145,154)
        